

















































































59 14 
67 37 55 
71 48 57 
43 20 
29 3 7 
76 25 
61 33 
65 30 75 
49 8 45 
9 0 
15 73 
21 64 
66 18 50 
5 42 
52 11 17 
2 44 
26 28 

53 68 
56 35 46 
69 19 
74 36 
47 31 40 
4 10 
72 24 62 
58 38 39 
51 41 
23 63 12 
70 22 
16 54 
6 60 
32 13 27 
34 1 
